experiments/benchmarks/random_smt/18_13_7.smt2
(declare-fun X0 () (_ BitVec 12))
(declare-fun X1 () (_ BitVec 12))
(declare-fun X2 () (_ BitVec 12))
(declare-fun X3 () (_ BitVec 12))
(declare-fun X4 () (_ BitVec 12))
(declare-fun X5 () (_ BitVec 12))
(declare-fun X6 () (_ BitVec 12))
(declare-fun X7 () (_ BitVec 12))
(declare-fun X8 () (_ BitVec 12))
(declare-fun X9 () (_ BitVec 12))
(declare-fun X10 () (_ BitVec 12))
(declare-fun X11 () (_ BitVec 12))
(declare-fun X12 () (_ BitVec 12))
(declare-fun X13 () (_ BitVec 12))
(declare-fun X14 () (_ BitVec 12))
(declare-fun X15 () (_ BitVec 12))
(declare-fun X16 () (_ BitVec 12))
(declare-fun X17 () (_ BitVec 12))
(assert (bvsge (bvadd (bvmul #b000000000110 X1) (bvmul #b111111111010 X3) (bvmul #b111111111000 X4) (bvmul #b111111111010 X7) (bvmul #b111111111001 X8) (bvmul #b000000000100 X11) (bvmul #b000000000110 X16)  #b000000000011) #b000000000000))
(assert (bvsge (bvadd (bvmul #b111111110111 X2) (bvmul #b111111111111 X4)  #b000000000100) #b000000000000))
(assert (bvsge (bvadd (bvmul #b111111111111 X2) (bvmul #b000000000111 X12)  #b111111111101) #b000000000000))
(assert (bvsge (bvadd (bvmul #b111111111101 X4) (bvmul #b000000000101 X8)  #b111111111111) #b000000000000))
(assert (bvsge (bvadd (bvmul #b000000001000 X4) (bvmul #b000000000010 X8) (bvmul #b000000000100 X9)  #b000000001000) #b000000000000))
(assert (bvsge (bvadd (bvmul #b111111111000 X4) (bvmul #b111111111000 X15)  #b000000000001) #b000000000000))
(assert (bvsge (bvadd (bvmul #b111111111011 X3) (bvmul #b111111110111 X8) (bvmul #b111111110110 X9) (bvmul #b111111111011 X10) (bvmul #b111111110110 X11) (bvmul #b111111111100 X14) (bvmul #b000000000100 X17)  #b111111111101) #b000000000000))
(assert (bvsge (bvadd (bvmul #b000000000010 X2) (bvmul #b000000000110 X3) (bvmul #b000000001010 X4) (bvmul #b111111111100 X6) (bvmul #b111111111111 X11) (bvmul #b000000000011 X12)  #b000000000100) #b000000000000))
(assert (bvsge (bvadd (bvmul #b111111111010 X7)  #b000000000000) #b000000000000))
(assert (bvsge (bvadd (bvmul #b111111111101 X3) (bvmul #b111111111001 X5) (bvmul #b000000001000 X9) (bvmul #b111111110110 X12) (bvmul #b111111111111 X15)  #b000000000101) #b000000000000))
(assert (bvsge (bvadd (bvmul #b111111111010 X3) (bvmul #b000000001001 X4) (bvmul #b000000000001 X8) (bvmul #b111111111010 X12) (bvmul #b111111111111 X13) (bvmul #b000000001000 X14) (bvmul #b111111110110 X17)  #b111111111100) #b000000000000))
(assert (bvsge (bvadd (bvmul #b111111110110 X12) (bvmul #b111111111111 X16)  #b111111111011) #b000000000000))
(assert (bvsge (bvadd (bvmul #b000000001010 X2) (bvmul #b000000000100 X3) (bvmul #b111111111010 X8) (bvmul #b111111111100 X12) (bvmul #b111111111001 X13) (bvmul #b000000000100 X15) (bvmul #b111111111001 X17)  #b000000000001) #b000000000000))
(assert (bvsge (bvadd (bvmul #b000000000001 X0)  #b000000001000) #b000000000000))
(assert (bvsge (bvadd (bvmul #b000000000001 X1)  #b000000001000) #b000000000000))
(assert (bvsge (bvadd (bvmul #b000000000001 X2)  #b000000001000) #b000000000000))
(assert (bvsge (bvadd (bvmul #b000000000001 X3)  #b000000001000) #b000000000000))
(assert (bvsge (bvadd (bvmul #b000000000001 X4)  #b000000001000) #b000000000000))
(assert (bvsge (bvadd (bvmul #b000000000001 X5)  #b000000001000) #b000000000000))
(assert (bvsge (bvadd (bvmul #b000000000001 X6)  #b000000001000) #b000000000000))
(assert (bvsge (bvadd (bvmul #b000000000001 X7)  #b000000001000) #b000000000000))
(assert (bvsge (bvadd (bvmul #b000000000001 X8)  #b000000001000) #b000000000000))
(assert (bvsge (bvadd (bvmul #b000000000001 X9)  #b000000001000) #b000000000000))
(assert (bvsge (bvadd (bvmul #b000000000001 X10)  #b000000001000) #b000000000000))
(assert (bvsge (bvadd (bvmul #b000000000001 X11)  #b000000001000) #b000000000000))
(assert (bvsge (bvadd (bvmul #b000000000001 X12)  #b000000001000) #b000000000000))
(assert (bvsge (bvadd (bvmul #b000000000001 X13)  #b000000001000) #b000000000000))
(assert (bvsge (bvadd (bvmul #b000000000001 X14)  #b000000001000) #b000000000000))
(assert (bvsge (bvadd (bvmul #b000000000001 X15)  #b000000001000) #b000000000000))
(assert (bvsge (bvadd (bvmul #b000000000001 X16)  #b000000001000) #b000000000000))
(assert (bvsge (bvadd (bvmul #b000000000001 X17)  #b000000001000) #b000000000000))
(assert (bvsge (bvadd (bvmul #b111111111111 X0)  #b000000000111) #b000000000000))
(assert (bvsge (bvadd (bvmul #b111111111111 X1)  #b000000000111) #b000000000000))
(assert (bvsge (bvadd (bvmul #b111111111111 X2)  #b000000000111) #b000000000000))
(assert (bvsge (bvadd (bvmul #b111111111111 X3)  #b000000000111) #b000000000000))
(assert (bvsge (bvadd (bvmul #b111111111111 X4)  #b000000000111) #b000000000000))
(assert (bvsge (bvadd (bvmul #b111111111111 X5)  #b000000000111) #b000000000000))
(assert (bvsge (bvadd (bvmul #b111111111111 X6)  #b000000000111) #b000000000000))
(assert (bvsge (bvadd (bvmul #b111111111111 X7)  #b000000000111) #b000000000000))
(assert (bvsge (bvadd (bvmul #b111111111111 X8)  #b000000000111) #b000000000000))
(assert (bvsge (bvadd (bvmul #b111111111111 X9)  #b000000000111) #b000000000000))
(assert (bvsge (bvadd (bvmul #b111111111111 X10)  #b000000000111) #b000000000000))
(assert (bvsge (bvadd (bvmul #b111111111111 X11)  #b000000000111) #b000000000000))
(assert (bvsge (bvadd (bvmul #b111111111111 X12)  #b000000000111) #b000000000000))
(assert (bvsge (bvadd (bvmul #b111111111111 X13)  #b000000000111) #b000000000000))
(assert (bvsge (bvadd (bvmul #b111111111111 X14)  #b000000000111) #b000000000000))
(assert (bvsge (bvadd (bvmul #b111111111111 X15)  #b000000000111) #b000000000000))
(assert (bvsge (bvadd (bvmul #b111111111111 X16)  #b000000000111) #b000000000000))
(assert (bvsge (bvadd (bvmul #b111111111111 X17)  #b000000000111) #b000000000000))
(check-sat)
