experiments/benchmarks/random/18_13_7.in
49 20
1 0 6 0 -6 -8 0 0 -6 -7 0 0 4 0 0 0 0 6 0 3
1 0 0 -9 0 -1 0 0 0 0 0 0 0 0 0 0 0 0 0 4
1 0 0 -1 0 0 0 0 0 0 0 0 0 7 0 0 0 0 0 -3
1 0 0 0 0 -3 0 0 0 5 0 0 0 0 0 0 0 0 0 -1
1 0 0 0 0 8 0 0 0 2 4 0 0 0 0 0 0 0 0 8
1 0 0 0 0 -8 0 0 0 0 0 0 0 0 0 0 -8 0 0 1
1 0 0 0 -5 0 0 0 0 -9 -10 -5 -10 0 0 -4 0 0 4 -3
1 0 0 2 6 10 0 -4 0 0 0 0 -1 3 0 0 0 0 0 4
1 0 0 0 0 0 0 0 -6 0 0 0 0 0 0 0 0 0 0 0
1 0 0 0 -3 0 -7 0 0 0 8 0 0 -10 0 0 -1 0 0 5
1 0 0 0 -6 9 0 0 0 1 0 0 0 -6 -1 8 0 0 -10 -4
1 0 0 0 0 0 0 0 0 0 0 0 0 -10 0 0 0 -1 0 -5
1 0 0 10 4 0 0 0 0 -6 0 0 0 -4 -7 0 4 0 -7 1
1 1 0 0 0 0 0 0 0 0 0 0 0 0 0 0 0 0 0 8
1 0 1 0 0 0 0 0 0 0 0 0 0 0 0 0 0 0 0 8
1 0 0 1 0 0 0 0 0 0 0 0 0 0 0 0 0 0 0 8
1 0 0 0 1 0 0 0 0 0 0 0 0 0 0 0 0 0 0 8
1 0 0 0 0 1 0 0 0 0 0 0 0 0 0 0 0 0 0 8
1 0 0 0 0 0 1 0 0 0 0 0 0 0 0 0 0 0 0 8
1 0 0 0 0 0 0 1 0 0 0 0 0 0 0 0 0 0 0 8
1 0 0 0 0 0 0 0 1 0 0 0 0 0 0 0 0 0 0 8
1 0 0 0 0 0 0 0 0 1 0 0 0 0 0 0 0 0 0 8
1 0 0 0 0 0 0 0 0 0 1 0 0 0 0 0 0 0 0 8
1 0 0 0 0 0 0 0 0 0 0 1 0 0 0 0 0 0 0 8
1 0 0 0 0 0 0 0 0 0 0 0 1 0 0 0 0 0 0 8
1 0 0 0 0 0 0 0 0 0 0 0 0 1 0 0 0 0 0 8
1 0 0 0 0 0 0 0 0 0 0 0 0 0 1 0 0 0 0 8
1 0 0 0 0 0 0 0 0 0 0 0 0 0 0 1 0 0 0 8
1 0 0 0 0 0 0 0 0 0 0 0 0 0 0 0 1 0 0 8
1 0 0 0 0 0 0 0 0 0 0 0 0 0 0 0 0 1 0 8
1 0 0 0 0 0 0 0 0 0 0 0 0 0 0 0 0 0 1 8
1 -1 0 0 0 0 0 0 0 0 0 0 0 0 0 0 0 0 0 7
1 0 -1 0 0 0 0 0 0 0 0 0 0 0 0 0 0 0 0 7
1 0 0 -1 0 0 0 0 0 0 0 0 0 0 0 0 0 0 0 7
1 0 0 0 -1 0 0 0 0 0 0 0 0 0 0 0 0 0 0 7
1 0 0 0 0 -1 0 0 0 0 0 0 0 0 0 0 0 0 0 7
1 0 0 0 0 0 -1 0 0 0 0 0 0 0 0 0 0 0 0 7
1 0 0 0 0 0 0 -1 0 0 0 0 0 0 0 0 0 0 0 7
1 0 0 0 0 0 0 0 -1 0 0 0 0 0 0 0 0 0 0 7
1 0 0 0 0 0 0 0 0 -1 0 0 0 0 0 0 0 0 0 7
1 0 0 0 0 0 0 0 0 0 -1 0 0 0 0 0 0 0 0 7
1 0 0 0 0 0 0 0 0 0 0 -1 0 0 0 0 0 0 0 7
1 0 0 0 0 0 0 0 0 0 0 0 -1 0 0 0 0 0 0 7
1 0 0 0 0 0 0 0 0 0 0 0 0 -1 0 0 0 0 0 7
1 0 0 0 0 0 0 0 0 0 0 0 0 0 -1 0 0 0 0 7
1 0 0 0 0 0 0 0 0 0 0 0 0 0 0 -1 0 0 0 7
1 0 0 0 0 0 0 0 0 0 0 0 0 0 0 0 -1 0 0 7
1 0 0 0 0 0 0 0 0 0 0 0 0 0 0 0 0 -1 0 7
1 0 0 0 0 0 0 0 0 0 0 0 0 0 0 0 0 0 -1 7
